Ordonnancement/plne/source/petit_instance/4job/4job_10.dat
data;
param nombreJob := 4;
param nombreRessource := 3;
param duree := 1 3 2 10 3 2 4 3;
param capaciteRessource := 1 7 2 14 3 14;
param besoinRessource : 1 2 3 :=
                    1   3 1 6
                    2   1 6 1
                    3   1 7 6
                    4   4 6 8;
end;

