Ordonnancement/plne/source/glpk_resultat/4job/4job_10.sol
Problem:    glpsolRcpsp
Rows:       195
Columns:    73 (72 integer, 72 binary)
Non-zeros:  1105
Status:     INTEGER OPTIMAL
Objective:  obj = 10 (MINimum)

   No.   Row name        Activity     Lower bound   Upper bound
------ ------------    ------------- ------------- -------------
     1 periode[1]                  3             3             = 
     2 periode[2]                 10            10             = 
     3 periode[3]                  2             2             = 
     4 periode[4]                  3             3             = 
     5 complet[1,1]                3                           3 
     6 complet[1,2]                3                           3 
     7 complet[1,3]               -1                           3 
     8 complet[1,4]                1                           3 
     9 complet[1,5]                0                           3 
    10 complet[1,6]                3                           3 
    11 complet[1,7]                0                           3 
    12 complet[1,8]                0                           3 
    13 complet[1,9]                0                           3 
    14 complet[1,10]
                                   0                           3 
    15 complet[1,11]
                                   0                           3 
    16 complet[1,12]
                                   0                           3 
    17 complet[1,13]
                                   0                           3 
    18 complet[1,14]
                                   0                           3 
    19 complet[1,15]
                                   0                           3 
    20 complet[1,16]
                                   0                           3 
    21 complet[2,1]                8                          10 
    22 complet[2,2]                7                          10 
    23 complet[2,3]                6                          10 
    24 complet[2,4]                5                          10 
    25 complet[2,5]                4                          10 
    26 complet[2,6]                3                          10 
    27 complet[2,7]                2                          10 
    28 complet[2,8]                1                          10 
    29 complet[2,9]                0                          10 
    30 complet[2,10]
                                  10                          10 
    31 complet[2,11]
                                   0                          10 
    32 complet[2,12]
                                   0                          10 
    33 complet[2,13]
                                   0                          10 
    34 complet[2,14]
                                   0                          10 
    35 complet[2,15]
                                   0                          10 
    36 complet[2,16]
                                   0                          10 
    37 complet[3,1]                2                           2 
    38 complet[3,2]                2                           2 
    39 complet[3,3]               -1                           2 
    40 complet[3,4]                0                           2 
    41 complet[3,5]                2                           2 
    42 complet[3,6]                0                           2 
    43 complet[3,7]                0                           2 
    44 complet[3,8]                0                           2 
    45 complet[3,9]                0                           2 
    46 complet[3,10]
                                   0                           2 
    47 complet[3,11]
                                   0                           2 
    48 complet[3,12]
                                   0                           2 
    49 complet[3,13]
                                   0                           2 
    50 complet[3,14]
                                   0                           2 
    51 complet[3,15]
                                   0                           2 
    52 complet[3,16]
                                   0                           2 
    53 complet[4,1]                1                           3 
    54 complet[4,2]                0                           3 
    55 complet[4,3]                3                           3 
    56 complet[4,4]                0                           3 
    57 complet[4,5]                0                           3 
    58 complet[4,6]                0                           3 
    59 complet[4,7]                0                           3 
    60 complet[4,8]                0                           3 
    61 complet[4,9]                0                           3 
    62 complet[4,10]
                                   0                           3 
    63 complet[4,11]
                                   0                           3 
    64 complet[4,12]
                                   0                           3 
    65 complet[4,13]
                                   0                           3 
    66 complet[4,14]
                                   0                           3 
    67 complet[4,15]
                                   0                           3 
    68 complet[4,16]
                                   0                           3 
    69 cmax[1,1]                  10            -0               
    70 cmax[1,2]                  10            -0               
    71 cmax[1,3]                  10            -0               
    72 cmax[1,4]                   6            -0               
    73 cmax[1,5]                   5            -0               
    74 cmax[1,6]                   4            -0               
    75 cmax[1,7]                  10            -0               
    76 cmax[1,8]                  10            -0               
    77 cmax[1,9]                  10            -0               
    78 cmax[1,10]                 10            -0               
    79 cmax[1,11]                 10            -0               
    80 cmax[1,12]                 10            -0               
    81 cmax[1,13]                 10            -0               
    82 cmax[1,14]                 10            -0               
    83 cmax[1,15]                 10            -0               
    84 cmax[1,16]                 10            -0               
    85 cmax[1,17]                 10            -0               
    86 cmax[1,18]                 10            -0               
    87 cmax[2,1]                   9            -0               
    88 cmax[2,2]                   8            -0               
    89 cmax[2,3]                   7            -0               
    90 cmax[2,4]                   6            -0               
    91 cmax[2,5]                   5            -0               
    92 cmax[2,6]                   4            -0               
    93 cmax[2,7]                   3            -0               
    94 cmax[2,8]                   2            -0               
    95 cmax[2,9]                   1            -0               
    96 cmax[2,10]                  0            -0               
    97 cmax[2,11]                 10            -0               
    98 cmax[2,12]                 10            -0               
    99 cmax[2,13]                 10            -0               
   100 cmax[2,14]                 10            -0               
   101 cmax[2,15]                 10            -0               
   102 cmax[2,16]                 10            -0               
   103 cmax[2,17]                 10            -0               
   104 cmax[2,18]                 10            -0               
   105 cmax[3,1]                  10            -0               
   106 cmax[3,2]                  10            -0               
   107 cmax[3,3]                  10            -0               
   108 cmax[3,4]                   6            -0               
   109 cmax[3,5]                   5            -0               
   110 cmax[3,6]                  10            -0               
   111 cmax[3,7]                  10            -0               
   112 cmax[3,8]                  10            -0               
   113 cmax[3,9]                  10            -0               
   114 cmax[3,10]                 10            -0               
   115 cmax[3,11]                 10            -0               
   116 cmax[3,12]                 10            -0               
   117 cmax[3,13]                 10            -0               
   118 cmax[3,14]                 10            -0               
   119 cmax[3,15]                 10            -0               
   120 cmax[3,16]                 10            -0               
   121 cmax[3,17]                 10            -0               
   122 cmax[3,18]                 10            -0               
   123 cmax[4,1]                   9            -0               
   124 cmax[4,2]                   8            -0               
   125 cmax[4,3]                   7            -0               
   126 cmax[4,4]                  10            -0               
   127 cmax[4,5]                  10            -0               
   128 cmax[4,6]                  10            -0               
   129 cmax[4,7]                  10            -0               
   130 cmax[4,8]                  10            -0               
   131 cmax[4,9]                  10            -0               
   132 cmax[4,10]                 10            -0               
   133 cmax[4,11]                 10            -0               
   134 cmax[4,12]                 10            -0               
   135 cmax[4,13]                 10            -0               
   136 cmax[4,14]                 10            -0               
   137 cmax[4,15]                 10            -0               
   138 cmax[4,16]                 10            -0               
   139 cmax[4,17]                 10            -0               
   140 cmax[4,18]                 10            -0               
   141 ressource[1,1]
                                   5                           7 
   142 ressource[1,2]
                                   5                           7 
   143 ressource[1,3]
                                   5                           7 
   144 ressource[1,4]
                                   5                           7 
   145 ressource[1,5]
                                   5                           7 
   146 ressource[1,6]
                                   4                           7 
   147 ressource[1,7]
                                   1                           7 
   148 ressource[1,8]
                                   1                           7 
   149 ressource[1,9]
                                   1                           7 
   150 ressource[1,10]
                                   1                           7 
   151 ressource[1,11]
                                   0                           7 
   152 ressource[1,12]
                                   0                           7 
   153 ressource[1,13]
                                   0                           7 
   154 ressource[1,14]
                                   0                           7 
   155 ressource[1,15]
                                   0                           7 
   156 ressource[1,16]
                                   0                           7 
   157 ressource[1,17]
                                   0                           7 
   158 ressource[1,18]
                                   0                           7 
   159 ressource[2,1]
                                  12                          14 
   160 ressource[2,2]
                                  12                          14 
   161 ressource[2,3]
                                  12                          14 
   162 ressource[2,4]
                                  14                          14 
   163 ressource[2,5]
                                  14                          14 
   164 ressource[2,6]
                                   7                          14 
   165 ressource[2,7]
                                   6                          14 
   166 ressource[2,8]
                                   6                          14 
   167 ressource[2,9]
                                   6                          14 
   168 ressource[2,10]
                                   6                          14 
   169 ressource[2,11]
                                   0                          14 
   170 ressource[2,12]
                                   0                          14 
   171 ressource[2,13]
                                   0                          14 
   172 ressource[2,14]
                                   0                          14 
   173 ressource[2,15]
                                   0                          14 
   174 ressource[2,16]
                                   0                          14 
   175 ressource[2,17]
                                   0                          14 
   176 ressource[2,18]
                                   0                          14 
   177 ressource[3,1]
                                   9                          14 
   178 ressource[3,2]
                                   9                          14 
   179 ressource[3,3]
                                   9                          14 
   180 ressource[3,4]
                                  13                          14 
   181 ressource[3,5]
                                  13                          14 
   182 ressource[3,6]
                                   7                          14 
   183 ressource[3,7]
                                   1                          14 
   184 ressource[3,8]
                                   1                          14 
   185 ressource[3,9]
                                   1                          14 
   186 ressource[3,10]
                                   1                          14 
   187 ressource[3,11]
                                   0                          14 
   188 ressource[3,12]
                                   0                          14 
   189 ressource[3,13]
                                   0                          14 
   190 ressource[3,14]
                                   0                          14 
   191 ressource[3,15]
                                   0                          14 
   192 ressource[3,16]
                                   0                          14 
   193 ressource[3,17]
                                   0                          14 
   194 ressource[3,18]
                                   0                          14 
   195 obj                        10                             

   No. Column name       Activity     Lower bound   Upper bound
------ ------------    ------------- ------------- -------------
     1 x[1,1]       *              0             0             1 
     2 x[1,2]       *              0             0             1 
     3 x[1,3]       *              0             0             1 
     4 x[1,4]       *              1             0             1 
     5 x[1,5]       *              1             0             1 
     6 x[1,6]       *              1             0             1 
     7 x[1,7]       *              0             0             1 
     8 x[1,8]       *              0             0             1 
     9 x[1,9]       *              0             0             1 
    10 x[1,10]      *              0             0             1 
    11 x[1,11]      *              0             0             1 
    12 x[1,12]      *              0             0             1 
    13 x[1,13]      *              0             0             1 
    14 x[1,14]      *              0             0             1 
    15 x[1,15]      *              0             0             1 
    16 x[1,16]      *              0             0             1 
    17 x[1,17]      *              0             0             1 
    18 x[1,18]      *              0             0             1 
    19 x[2,1]       *              1             0             1 
    20 x[2,2]       *              1             0             1 
    21 x[2,3]       *              1             0             1 
    22 x[2,4]       *              1             0             1 
    23 x[2,5]       *              1             0             1 
    24 x[2,6]       *              1             0             1 
    25 x[2,7]       *              1             0             1 
    26 x[2,8]       *              1             0             1 
    27 x[2,9]       *              1             0             1 
    28 x[2,10]      *              1             0             1 
    29 x[2,11]      *              0             0             1 
    30 x[2,12]      *              0             0             1 
    31 x[2,13]      *              0             0             1 
    32 x[2,14]      *              0             0             1 
    33 x[2,15]      *              0             0             1 
    34 x[2,16]      *              0             0             1 
    35 x[2,17]      *              0             0             1 
    36 x[2,18]      *              0             0             1 
    37 x[3,1]       *              0             0             1 
    38 x[3,2]       *              0             0             1 
    39 x[3,3]       *              0             0             1 
    40 x[3,4]       *              1             0             1 
    41 x[3,5]       *              1             0             1 
    42 x[3,6]       *              0             0             1 
    43 x[3,7]       *              0             0             1 
    44 x[3,8]       *              0             0             1 
    45 x[3,9]       *              0             0             1 
    46 x[3,10]      *              0             0             1 
    47 x[3,11]      *              0             0             1 
    48 x[3,12]      *              0             0             1 
    49 x[3,13]      *              0             0             1 
    50 x[3,14]      *              0             0             1 
    51 x[3,15]      *              0             0             1 
    52 x[3,16]      *              0             0             1 
    53 x[3,17]      *              0             0             1 
    54 x[3,18]      *              0             0             1 
    55 x[4,1]       *              1             0             1 
    56 x[4,2]       *              1             0             1 
    57 x[4,3]       *              1             0             1 
    58 x[4,4]       *              0             0             1 
    59 x[4,5]       *              0             0             1 
    60 x[4,6]       *              0             0             1 
    61 x[4,7]       *              0             0             1 
    62 x[4,8]       *              0             0             1 
    63 x[4,9]       *              0             0             1 
    64 x[4,10]      *              0             0             1 
    65 x[4,11]      *              0             0             1 
    66 x[4,12]      *              0             0             1 
    67 x[4,13]      *              0             0             1 
    68 x[4,14]      *              0             0             1 
    69 x[4,15]      *              0             0             1 
    70 x[4,16]      *              0             0             1 
    71 x[4,17]      *              0             0             1 
    72 x[4,18]      *              0             0             1 
    73 z                          10                             

Integer feasibility conditions:

KKT.PE: max.abs.err = 0.00e+00 on row 0
        max.rel.err = 0.00e+00 on row 0
        High quality

KKT.PB: max.abs.err = 0.00e+00 on row 0
        max.rel.err = 0.00e+00 on row 0
        High quality

End of output
